0 2495
1 2479
2 2439
3 2334
4 2035
5 2035
6 1898
7 1898
8 1742
9 1742
10 1594
11 1594
12 1514
13 1514
14 1452
15 1452
16 1452
17 1452
18 1452
19 1452
20 1447
21 1426
22 1400
23 1390
24 1376
25 1376
26 1299
27 1299
28 1299
29 1299
30 1299
31 1299
32 1280
33 1280
34 1280
35 1280
36 1280
37 1237
38 1237
39 1237
40 1193
41 1193
42 1193
43 1193
44 1193
45 1162
46 1162
47 1156
48 1129
49 1129
50 1129
51 1121
52 1117
53 1117
54 1117
55 1117
56 1117
57 1117
58 1117
59 1117
60 1082
61 1053
62 1053
63 1053
64 1047
65 1047
66 1041
67 1041
68 1041
69 1041
70 1024
71 1024
72 1024
73 1024
74 1024
75 1024
76 1024
77 1024
78 1024
79 1024
80 1024
81 1024
82 1024
83 1024
84 1024
85 1024
86 1024
87 1022
88 1022
89 1022
90 976
91 976
92 976
93 976
94 976
95 976
96 976
97 976
98 976
99 976
100 976
101 976
102 976
103 976
104 976
105 976
106 976
107 976
108 976
109 975
110 975
111 975
112 975
113 975
114 975
115 961
116 961
117 961
118 961
119 961
120 961
121 961
122 961
123 961
124 961
125 961
126 961
127 961
128 961
129 961
130 961
131 961
132 959
133 959
134 955
135 955
136 954
137 954
138 954
139 954
140 954
141 954
142 946
143 942
144 942
145 942
146 942
147 940
148 940
149 940
150 940
151 940
152 940
153 940
154 938
155 938
156 938
157 938
158 929
159 929
160 929
161 929
162 929
163 929
164 927
165 927
166 927
167 927
168 927
169 927
170 927
171 910
172 910
173 910
174 909
175 909
176 909
177 909
178 909
179 909
180 909
181 909
182 909
183 903
184 903
185 903
186 903
187 903
188 902
189 902
190 902
191 901
192 901
193 901
194 901
195 901
196 895
197 887
198 887
199 887
200 887
201 887
202 887
203 887
204 887
205 887
206 887
207 887
208 887
209 887
210 887
211 887
212 887
213 887
214 887
215 887
216 887
217 887
218 887
219 887
220 887
221 887
222 887
223 887
224 887
225 887
226 887
227 887
228 887
229 886
230 886
231 886
232 886
233 886
234 886
235 886
236 886
237 886
238 886
239 886
240 886
241 886
242 886
243 886
244 886
245 883
246 883
247 883
248 883
249 883
250 883
251 883
252 883
253 883
254 883
255 883
256 883
257 883
258 883
259 883
260 883
261 883
262 883
263 883
264 883
265 883
266 883
267 883
268 883
269 883
270 883
271 883
272 883
273 883
274 883
275 883
276 883
277 883
278 883
279 883
280 883
281 883
282 883
283 883
284 883
285 883
286 883
287 883
288 883
289 883
290 883
291 883
292 883
293 883
294 883
295 883
296 883
297 883
298 883
299 883
300 883
301 883
302 883
303 883
304 883
305 883
306 883
307 883
308 883
309 883
310 883
311 883
312 883
313 883
314 883
315 883
316 883
317 883
318 883
319 883
320 883
321 883
322 883
323 883
324 883
325 883
326 883
327 883
328 883
329 883
330 883
331 883
332 883
333 883
334 883
335 883
336 883
337 883
338 883
339 883
340 883
341 883
342 883
343 883
344 883
345 883
346 883
347 883
348 883
349 883
350 883
351 883
352 883
353 883
354 883
355 883
356 883
357 883
358 883
359 883
360 883
361 883
362 883
363 883
364 883
365 883
366 883
367 883
368 883
369 883
370 883
371 883
372 883
373 883
374 883
375 883
376 883
377 883
378 883
379 883
380 883
381 883
382 883
383 883
384 883
385 883
386 883
387 883
388 883
389 883
390 883
391 883
392 883
393 883
394 883
395 883
396 883
397 883
398 883
399 883
400 883
401 883
402 883
403 883
404 883
405 883
406 883
407 883
408 883
409 883
410 883
411 883
412 883
413 883
414 883
415 883
416 883
417 883
418 883
419 883
420 883
421 883
422 883
423 883
424 883
425 883
426 883
427 883
428 883
429 883
430 883
431 883
432 883
433 883
434 883
435 883
436 883
437 883
438 883
439 883
440 883
441 883
442 883
443 883
444 883
445 883
446 883
447 883
448 883
449 883
450 883
451 883
452 883
453 883
454 883
455 883
456 883
457 883
458 883
459 883
460 883
461 883
462 883
463 883
464 883
465 883
466 883
467 883
468 883
469 883
470 883
471 883
472 883
473 883
474 883
475 883
476 883
477 883
478 883
479 883
480 883
481 883
482 883
483 883
484 883
485 883
486 883
487 883
488 883
489 883
490 883
491 883
492 883
493 883
494 883
495 883
496 883
497 883
498 883
499 883
500 883
501 883
502 883
503 883
504 883
505 883
506 883
507 883
508 883
509 883
510 883
511 883
512 883
513 883
514 883
515 883
516 883
517 883
518 883
519 883
520 883
521 883
522 883
523 883
524 883
525 883
526 883
527 883
528 883
529 883
530 883
531 883
532 883
533 883
534 883
535 883
536 883
537 883
538 883
539 883
540 883
541 883
542 883
543 883
544 883
545 883
546 883
547 883
548 883
549 883
550 883
551 883
552 883
553 883
554 883
555 883
556 883
557 883
558 883
559 883
560 883
561 883
562 883
563 883
564 883
565 883
566 883
567 883
568 883
569 883
570 883
571 883
572 883
573 883
574 883
575 883
576 883
577 883
578 883
579 883
580 883
581 883
582 883
583 883
584 883
585 883
586 883
587 883
588 883
589 883
590 883
591 883
592 883
593 883
594 883
595 883
596 883
597 883
598 883
599 883
600 883
601 883
602 883
603 883
604 883
605 883
606 883
607 883
608 883
609 883
610 883
611 883
612 883
613 883
614 883
615 883
616 883
617 883
618 883
619 883
620 883
621 883
622 883
623 883
624 883
625 883
626 883
627 883
628 883
629 883
630 883
631 883
632 883
633 883
634 883
635 883
636 883
637 883
638 883
639 883
640 883
641 883
642 883
643 883
644 883
645 883
646 883
647 883
648 883
649 883
650 883
651 883
652 883
653 883
654 883
655 883
656 883
657 883
658 883
659 883
660 883
661 883
662 883
663 883
664 883
665 883
666 883
667 883
668 883
669 883
670 883
671 883
672 883
673 883
674 883
675 883
676 883
677 883
678 883
679 883
680 883
681 883
682 883
683 883
684 883
685 883
686 883
687 883
688 883
689 883
690 883
691 883
692 883
693 883
694 883
695 883
696 883
697 883
698 883
699 883
700 883
701 883
702 883
703 883
704 883
705 883
706 883
707 883
708 883
709 883
710 883
711 883
712 883
713 883
714 883
715 883
716 883
717 883
718 883
719 883
720 883
721 883
722 883
723 883
724 883
725 883
726 883
727 883
728 883
729 883
730 883
731 883
732 883
733 883
734 883
735 883
736 883
737 883
738 883
739 883
740 883
741 883
742 883
743 883
744 883
745 883
746 883
747 883
748 883
749 883
750 883
751 883
752 883
753 883
754 883
755 883
756 883
757 883
758 883
759 883
760 883
761 883
762 883
763 883
764 883
765 883
766 883
767 883
768 883
769 883
770 883
771 883
772 883
773 883
774 883
775 883
776 883
777 883
778 883
779 883
780 883
781 883
782 883
783 883
784 883
785 883
786 883
787 883
788 883
789 883
790 883
791 883
792 883
793 883
794 883
795 883
796 883
797 883
798 883
799 883
800 883
801 883
802 883
803 883
804 883
805 883
806 883
807 883
808 883
809 883
810 883
811 883
812 883
813 883
814 883
815 883
816 883
817 883
818 883
819 883
820 883
821 883
822 883
823 883
824 883
825 883
826 883
827 883
828 883
829 883
830 883
831 883
832 883
833 883
834 883
835 883
836 883
837 883
838 883
839 883
840 883
841 883
842 883
843 883
844 883
845 883
846 883
847 883
848 883
849 883
850 883
851 883
852 883
853 883
854 883
855 883
856 883
857 883
858 883
859 883
860 883
861 883
862 883
863 883
864 883
865 883
866 883
867 883
868 883
869 883
870 883
871 883
872 883
873 883
874 883
875 883
876 883
877 883
878 883
879 883
880 883
881 883
882 883
883 883
884 883
885 883
886 883
887 883
888 883
889 883
890 883
891 883
892 883
893 883
894 883
895 883
896 883
897 883
898 883
899 883
900 883
901 883
902 883
903 883
904 883
905 883
906 883
907 883
908 883
909 883
910 883
911 883
912 883
913 883
914 883
915 883
916 883
917 883
918 883
919 883
920 883
921 883
922 883
923 883
924 883
925 883
926 883
927 883
928 883
929 883
930 883
931 883
932 883
933 883
934 883
935 883
936 883
937 883
938 883
939 883
940 883
941 883
942 883
943 883
944 883
945 883
946 883
947 883
948 883
949 883
950 883
951 883
952 883
953 883
954 883
955 883
956 883
957 883
958 883
959 883
960 883
961 883
962 883
963 883
964 883
965 883
966 883
967 883
968 883
969 883
970 883
971 883
972 883
973 883
974 883
975 883
976 883
977 883
978 883
979 883
980 883
981 883
982 883
983 883
984 883
985 883
986 883
987 883
988 883
989 883
990 883
991 883
992 883
993 883
994 883
995 883
996 883
997 883
998 883
999 883
Best: [[31,2,22,32,20,18],
       [21,6,26,11,16,30,28],
       [13,17,27],
       [15,9,12,5,29,25],
       [8,14,7,3,4,24,19,10,23]], fitness: 883
